c description: Random 3-CNF over 16 variables and 68 clauses
c generator: CNFgen (0.9.2)
c copyright: (C) 2012-2022 Massimo Lauria <massimo.lauria@uniroma1.it>
c url: https://massimolauria.net/cnfgen
c command line: cnfgen --output ../CNF/16_bit_68_117.cnf randkcnf 3 16 68
c
p cnf 16 68
2 5 -13 0
9 -14 15 0
5 -10 -13 0
1 -2 4 0
2 -10 12 0
-1 3 -15 0
-3 5 -16 0
2 9 15 0
2 3 6 0
-2 -11 15 0
-2 3 -7 0
6 -7 -14 0
2 10 -12 0
-6 12 14 0
4 11 -13 0
-3 -4 -11 0
11 -14 -16 0
-5 -6 -10 0
-1 -4 -6 0
-6 -7 -10 0
-4 5 -7 0
-2 -7 11 0
-10 -11 -15 0
-7 9 10 0
12 -15 -16 0
8 9 11 0
-10 11 13 0
-4 11 -16 0
-1 8 -10 0
-2 -12 -15 0
-8 -9 11 0
6 -12 14 0
1 -5 -9 0
1 -7 16 0
-1 -9 -13 0
4 5 -11 0
4 5 -15 0
12 -14 -15 0
-3 7 -10 0
7 15 16 0
4 -7 -15 0
2 -4 -14 0
-1 -2 12 0
-8 -10 -13 0
-4 -8 12 0
7 -11 -12 0
-1 -6 12 0
1 2 -7 0
-3 7 -16 0
4 5 -14 0
4 6 7 0
-3 -9 14 0
3 9 13 0
-2 3 -11 0
2 4 10 0
-10 -13 14 0
3 5 -16 0
-1 10 -11 0
-2 12 -13 0
-4 6 -11 0
9 -10 12 0
-4 10 -16 0
1 5 -12 0
1 -6 9 0
2 11 14 0
1 11 -12 0
10 -13 -14 0
5 7 -14 0
